\* 1D-Stock-Cut *\
Minimize
OBJ: Pattern_0 + Pattern_1 + Pattern_10 + Pattern_11 + Pattern_2 + Pattern_3
 + Pattern_4 + Pattern_5 + Pattern_6 + Pattern_7 + Pattern_8 + Pattern_9
Subject To
_C1: 13 Pattern_0 >= 25
_C10: 9 Pattern_9 >= 25
_C11: 7 Pattern_10 >= 25
_C12: 21 Pattern_11 >= 25
_C13: Pattern_0 >= 17
_C14: Pattern_1 >= 89
_C15: Pattern_2 >= 12
_C16: Pattern_3 >= 43
_C17: Pattern_4 >= 79
_C18: Pattern_5 >= 39
_C19: Pattern_6 >= 19
_C2: 16 Pattern_1 >= 25
_C20: Pattern_7 >= 57
_C21: Pattern_8 >= 68
_C22: Pattern_9 >= 64
_C23: Pattern_10 >= 29
_C24: Pattern_11 >= 93
_C3: 8 Pattern_2 >= 25
_C4: 18 Pattern_3 >= 25
_C5: 11 Pattern_4 >= 25
_C6: 15 Pattern_5 >= 25
_C7: 19 Pattern_6 >= 25
_C8: 17 Pattern_7 >= 25
_C9: 22 Pattern_8 >= 25
Bounds
 0 <= Pattern_0
 0 <= Pattern_1
 0 <= Pattern_10
 0 <= Pattern_11
 0 <= Pattern_2
 0 <= Pattern_3
 0 <= Pattern_4
 0 <= Pattern_5
 0 <= Pattern_6
 0 <= Pattern_7
 0 <= Pattern_8
 0 <= Pattern_9
Generals
Pattern_0
Pattern_1
Pattern_10
Pattern_11
Pattern_2
Pattern_3
Pattern_4
Pattern_5
Pattern_6
Pattern_7
Pattern_8
Pattern_9
End
